
Log started (V11.0.0) Sun Apr 13 13:00:51 2008

Tried aggregator 1 time.
Reduced MIP has 150 rows, 5001 columns, and 10050 nonzeros.
Presolve time =    0.05 sec.
Clique table members: 100.
MIP emphasis: balance optimality and feasibility.
MIP search method: dynamic search.
Parallel mode: none, using 1 thread.
Root relaxation solution time =    0.28 sec.

        Nodes                                         Cuts/
   Node  Left     Objective  IInf  Best Integer     Best Node    ItCnt     Gap

*     0+    0                         5387.0000        6.2732      800   99.88%
*     0+    0                           14.0000        6.2732      800   55.19%
      0     0        7.0000    59       14.0000      Fract: 2      824   50.00%
*     0+    0                           13.0000        7.0000      824   46.15%
      0     0        7.0000    58       13.0000       Cuts: 2      835   46.15%
*     0+    0                           12.0000        7.0000      835   41.67%
      0     0        8.0515    62       12.0000      Cuts: 47      887   32.90%
*     0+    0                           11.0000        8.0515      887   26.80%
      0     0        8.2000    60       11.0000      Cuts: 16      909   25.45%
*     0+    0                           10.0000        8.2000      909   18.00%
      0     0        9.0000    21       10.0000      Cuts: 21      930   10.00%
*     0+    0                            9.0000        9.0000      930    0.00%

Clique cuts applied:  10
Mixed integer rounding cuts applied:  30
Zero-half cuts applied:  2

Solution pool: 7 solutions saved.

MIP - Integer optimal solution:  Objective = 9.0000000000e+000
Solution time =    0.64 sec.  Iterations = 930  Nodes = 0


Incumbent solution
Variable Name           Solution Value
Cmax                          9.000000
X_1_1                         1.000000
X_2_34                        1.000000
X_3_4                         1.000000
X_4_11                        1.000000
X_5_5                         1.000000
X_6_14                        1.000000
X_7_2                         1.000000
X_8_38                        1.000000
X_9_35                        1.000000
X_10_30                       1.000000
X_11_7                        1.000000
X_12_48                       1.000000
X_13_26                       1.000000
X_14_50                       1.000000
X_15_49                       1.000000
X_16_1                        1.000000
X_17_33                       1.000000
X_18_9                        1.000000
X_19_34                       1.000000
X_20_18                       1.000000
X_21_42                       1.000000
X_22_45                       1.000000
X_23_33                       1.000000
X_24_4                        1.000000
X_25_44                       1.000000
X_26_50                       1.000000
X_27_12                       1.000000
X_28_38                       1.000000
X_29_41                       1.000000
X_30_31                       1.000000
X_31_16                       1.000000
X_32_26                       1.000000
X_33_27                       1.000000
X_34_5                        1.000000
X_35_35                       1.000000
X_36_1                        1.000000
X_37_19                       1.000000
X_38_17                       1.000000
X_39_36                       1.000000
X_40_50                       1.000000
X_41_6                        1.000000
X_42_46                       1.000000
X_43_32                       1.000000
X_44_24                       1.000000
X_45_3                        1.000000
X_46_35                       1.000000
X_47_36                       1.000000
X_48_25                       1.000000
X_49_37                       1.000000
X_50_8                        1.000000
X_51_7                        1.000000
X_52_15                       1.000000
X_53_37                       1.000000
X_54_45                       1.000000
X_55_44                       1.000000
X_56_37                       1.000000
X_57_40                       1.000000
X_58_14                       1.000000
X_59_50                       1.000000
X_60_47                       1.000000
X_61_16                       1.000000
X_62_22                       1.000000
X_63_13                       1.000000
X_64_21                       1.000000
X_65_39                       1.000000
X_66_40                       1.000000
X_67_6                        1.000000
X_68_18                       1.000000
X_69_30                       1.000000
X_70_28                       1.000000
X_71_9                        1.000000
X_72_32                       1.000000
X_73_48                       1.000000
X_74_16                       1.000000
X_75_6                        1.000000
X_76_9                        1.000000
X_77_39                       1.000000
X_78_23                       1.000000
X_79_27                       1.000000
X_80_29                       1.000000
X_81_25                       1.000000
X_82_24                       1.000000
X_83_24                       1.000000
X_84_22                       1.000000
X_85_3                        1.000000
X_86_41                       1.000000
X_87_42                       1.000000
X_88_10                       1.000000
X_89_28                       1.000000
X_90_15                       1.000000
X_91_34                       1.000000
X_92_4                        1.000000
X_93_48                       1.000000
X_94_15                       1.000000
X_95_47                       1.000000
X_96_3                        1.000000
X_97_42                       1.000000
X_98_43                       1.000000
X_99_26                       1.000000
X_100_20                      1.000000
All other variables in the range 1-5001 are 0.
